benchmarks_vrp/CMT12/fixed_c/CMT12_9.vrp
NAME: CMT12_9
TYPE: CVRP
COMMENT: 819.56 - Cluster Nr.9
DIMENSION: 9
CAPACITY: 200
EDGE_WEIGHT_TYPE: EUC_2D
NODE_COORD_TYPE: TWOD_COORDS
NODE_COORD_SECTION: 
7 20 85
9 22 85
1 20 80
2 25 85
3 22 75
8 40 50
6 18 75
5 15 75
4 15 80
DEPOT_SECTION: 
8
-1
DEMAND_SECTION: 
4 10
3 30
9 10
7 40
5 20
1 40
2 20
6 20
8 0
EOF
