benchmarks_vrp/CMT12/fixed_c/CMT12_9.tour
NAME: CMT12_9 solution
TYPE: TOUR
TOUR_SECTION:
8 3 1 2 9 7 4 5 6 -1
-1
EOF